50

100 7 307
99 23 301
99 9 298
97 16 354
97 26 345
96 28 360
96 10 315
96 20 311
93 4 348
93 21 344
91 5 279
84 24 268
83 3 334
81 19 306
79 21 251
78 8 303
77 2 301
74 21 316
71 4 313
67 1 316
66 20 243
63 19 246
62 7 343
61 18 354
61 4 317
61 12 344
59 4 240
59 17 340
59 8 315
58 1 289
57 9 345
56 7 339
54 6 344
54 8 291
53 8 301
53 11 256
51 16 181
50 3 345
49 2 358
48 8 265
45 3 195
45 4 217
45 2 263
40 11 323
40 4 175
39 7 121
39 4 235
34 7 299
32 8 309
30 3 258
